sat
(:added-eqs                       17182
 :arith-eq-adapter                830
 :arith-bound-propagations-lp     561
 :arith-branch                    14
 :arith-conflicts                 1442
 :arith-cube-calls                4
 :arith-diseq                     4812
 :arith-fixed-eqs                 1331
 :arith-gcd-calls                 117
 :arith-grobner-calls             301
 :arith-grobner-conflicts         87
 :arith-hnf-calls                 3
 :arith-horner-calls              82
 :arith-horner-conflicts          3
 :arith-horner-cross-nested-forms 12741
 :arith-lower                     5367
 :arith-make-feasible             2632
 :arith-max-columns               1544
 :arith-max-rows                  730
 :arith-nla-add-bounds            42
 :arith-nla-lemmas                916
 :arith-nla-propagate-bounds      334
 :arith-nla-propagate-eq          10381
 :arith-nra-calls                 21
 :arith-offset-eqs                6853
 :arith-patches                   117
 :arith-patches-success           101
 :arith-upper                     4049
 :binary-propagations             18216
 :card2bv-rewrites                1
 :conflicts                       277
 :decisions                       48422
 :del-clause                      1284
 :elim-unconstrained              41
 :final-checks                    568
 :max-memory                      35.02
 :memory                          19.89
 :minimized-lits                  1168
 :mk-bool-var                     5103
 :mk-clause                       2384
 :mk-clause-binary                19011
 :nlsat-conflicts                 1982
 :nlsat-decisions                 5
 :nlsat-propagations              203217
 :nlsat-stages                    104009
 :num-allocs                      1730633271
 :num-checks                      1
 :propagations                    30050
 :restarts                        2
 :rlimit-count                    2664496
 :time                            1.68
 :total-time                      1.69)
